letting n =  10
letting blocks =  [[1, 1], [1, 2], [1, 3], [1, 7], [1, 8], [1, 9], [2, 1], [2, 2], [2, 3], [2, 4], [2, 5], [2, 8], [3, 4], [3, 6], [3, 7], [3, 9], [3, 10], [4, 1], [4, 4], [4, 5], [4, 7], [4, 8], [4, 10], [5, 1], [5, 4], [5, 5], [5, 7], [5, 8], [5, 10], [6, 3], [6, 5], [6, 6], [6, 7], [6, 9], [6, 10], [7, 2], [7, 3], [7, 5], [7, 6], [7, 9], [7, 10], [8, 2], [8, 4], [8, 5], [8, 9], [8, 10], [9, 1], [9, 2], [9, 3], [9, 6], [9, 7], [9, 8], [10, 1], [10, 2], [10, 3], [10, 4], [10, 8], [10, 9]]
